100 8
471 260
215 463
25 342
239 639
319 862
543 329
617 345
850 201
515 948
438 757
885 914
278 341
777 874
714 116
447 394
422 334
601 269
607 362
742 955
523 696
490 751
779 833
798 160
809 861
659 618
942 799
659 956
778 265
341 274
577 912
290 136
668 976
193 372
159 620
762 845
457 723
655 559
805 258
656 864
322 441
393 310
425 410
852 278
726 816
708 230
265 549
721 846
123 415
838 849
933 347
31 407
496 864
881 292
340 261
444 483
767 829
343 217
823 13
793 825
662 830
442 396
463 827
437 476
888 893
814 167
414 719
737 760
732 970
792 877
819 844
61 317
709 906
817 141
738 753
117 369
348 501
382 315
208 229
501 657
182 632
253 177
293 183
755 734
787 257
682 181
542 683
230 254
677 780
907 927
822 205
688 715
388 221
619 844
529 637
510 702
397 371
378 232
293 275
849 313
497 551
